c A SAT instance generated from a 3-CNF formula that had 20 clauses and 10 variables
p cnf 10 20
6 3 8 0
8 3 10 0
9 -7 -3 0
1 5 -4 0
2 -6 -9 0
5 7 6 0
5 1 -8 0
3 -2 4 0
4 10 -7 0
-2 7 -10 0
-8 -1 -10 0
4 2 3 0
6 9 -4 0
-8 10 -2 0
1 7 3 0
-9 3 -1 0
-2 -10 5 0
7 9 4 0
-10 9 -2 0
-10 -1 -4 0
